#WCA fluid + double-well diatomic atom
echo none

units           lj
atom_style      bond

dimension       2

read_data data.dimer

group solvent type 1
group dimer type 2

# Pair interactions
pair_style      lj/cut 1.12246152962189
pair_modify shift yes
pair_coeff      * * 1.0 1.0

# Bonded interactions
bond_style double_well

bond_coeff   1   15.0 0.5 1.12246152962189

neighbor        0.3 multi
neigh_modify    delay 1 every 1 check yes

timestep		0.001
fix             4 all enforce2d
fix		1 solvent nve/limit 0.1
fix		2 all momentum 1 linear 1 1 1
fix		3 solvent temp/rescale 1 0.5 1.0 0.02 0.5
	
run		10000
unfix		3
unfix		1
fix 1 all nve

reset_timestep 0

# calculate the bond distance
compute 1 all bond/local dist

thermo 10000
thermo_style   custom   step  temp  epair  ebond pe ke etotal emol  press pxx pyy pzz  vol 

dump 1 all local 10 bond.dump index  c_1
dump   2   all   custom   100 dimer.lammpstrj id type x y z ix iy iz
run		100

reset_timestep 0

write_restart dimer.start

