# WCA melt

units		lj
atom_style	sphere
dimension	3

lattice		sc 0.04
region		box block -5.0 5.0 -5.0 5.0 -5.0 5.0
create_box	2 box
create_atoms	1 box

group           dimer id <= 2 #first two atoms

set             group dimer type 2

set		type 1 mass 1
set		type 2 mass 1

group all type 1 2


# multi neighbor and comm for efficiency

neighbor	1 multi
neigh_modify	delay 0
communicate	multi

# colloid potential

#  1.12246 = 2^(1/6) is the minimum of the potential

pair_style      lj/cut 1.12246152962189
pair_modify shift yes
pair_coeff      * * 1.0 1.0 1.12246152962189


fix		1 all nve
fix             2 all langevin   1.0 1.0   2.0   273636

thermo_style	custom step temp epair etotal press vol 
thermo		1000

timestep	0.005

run		20000


