#$FFS_READ_RESTART
read_restart dimer.start

neighbor 1.9 bin
neigh_modify every 1 delay 1 check yes 

group all type 1 2

#  1.12246 = 2^(1/6) is the minimum of the potential

pair_style      lj/cut 1.12246152962189
pair_modify shift yes
pair_coeff      * * 1.0 1.0 

bond_style double_well
bond_coeff   *   3.0 0.25 1.12246152962189 

fix 1 all   nve   ###NVE ensemble

#$FFS_FIX langevin
fix 2 all   langevin   1.0 1.0   2.0   7364   ###Langevin integrator Tstart Tstop 1/friction rndseed

##### Sample thermodynamic info  (temperature, energy, pressure, etc.) #####
#thermo 10
thermo_style   custom   step  temp  epair  ebond pe ke etotal emol  press pxx pyy pzz  vol
############################################################################

###
# set timestep of integrator
###
timestep 0.0001 #0.012 #0.001
#dump   1   all   custom   100000   dimer.dump.*  id  x y z  ix iy iz
###
# run integration for a number of steps
###
#$FFS_RUN
run 10
