units lj

atom_style bond #no stiffness
boundary        p p p

###
# Pair interactions require lists of neighbours to be calculated
###
#neighbor 0.3 bin
neighbor 1.9 bin
neigh_modify every 1 delay 1 check yes 


### READ "start" data file ###
read_data dimer.data
######################

group all type 1

#  1.12246 = 2^(1/6) is the minimum of the potential

pair_style      lj/cut 1.12246152962189
pair_modify shift yes
pair_coeff      * * 1.0 1.0 

bond_style double_well
bond_coeff   *   3.0 0.25 1.12246152962189 


fix 1 all   nve/limit 0.1   ###NVE ensemble
fix 2 all temp/rescale 10 1.0 1.0 0.2 0.5

##### Sample thermodynamic info  (temperature, energy, pressure, etc.) #####
thermo 100000
thermo_style   custom   step  temp  epair  ebond pe ke etotal emol  press pxx pyy pzz  vol
############################################################################

###
# set timestep of integrator
###
timestep 0.0001 #0.012 #0.001
dump   1   all   custom   100000   dimer.dump.*  id  x y z  ix iy iz
###
# run integration for a number of steps
###
run 10000

reset_timestep 0
write_restart dimer.start
run 0